(set-info :origin "SVCOMP13 benchmarks generated by Arie Gurfinkel")
(set-info :status unsat)
(set-logic HORN)
(declare-fun cp-rel-entry () Bool)
(declare-fun cp-rel-bb.i
             (Real
              Real
              Real
              Real
              Real
              Real
              Real
              Real
              Real
              Real
              Real
              Real
              Real
              Real
              Real)
             Bool)
(declare-fun cp-rel-bb1.i.i6.i.i.i.i.i.i () Bool)
(declare-fun cp-rel-__UFO__0
             (Real
              Real
              Real
              Real
              Real
              Real
              Real
              Real
              Real
              Real
              Real
              Real
              Real
              Real
              Real
              Real
              Bool)
             Bool)
(assert |cp-rel-entry|)
(assert (forall ((?A Real) (?B Real) (?C Real) (?D Real) (?E Real) (?F Real) (?G Real) (?H Real) (?I Real) (?J Real) (?K Real) (?L Real) (?M Real) (?N Real) (?O Real) (?P Bool) )(let (($x236520 (|cp-rel-bb.i| ?A ?B ?C ?D ?E ?F ?G ?H ?I ?J ?K ?L ?M ?N ?O)))
(let (($x253522 (= ?P true)))
(let (($x902598 (and |cp-rel-entry| (<= ?O 0.0) (>= ?N 0.0) (<= ?N 0.0) (>= ?M 0.0) (<= ?M 0.0) (>= ?L 0.0) (<= ?L 0.0) (>= ?K 0.0) (<= ?K 0.0) (>= ?J 456.0) (<= ?J 456.0) (>= ?I 0.0) (<= ?I 0.0) (>= ?H 0.0) (<= ?H 0.0) (>= ?G 0.0) (<= ?G 0.0) (>= ?F 0.0) (<= ?F 0.0) (>= ?E 0.0) (<= ?E 0.0) (>= ?D 0.0) (<= ?D 0.0) (>= ?C 0.0) (<= ?C 0.0) (>= ?B 0.0) (<= ?B 0.0) (>= ?A 0.0) (<= ?A 0.0) $x253522 (>= ?O 0.0))))
(=> $x902598 $x236520)))))
)
(assert (forall ((?A Real) (?B Real) (?C Real) (?D Real) (?E Real) (?F Real) (?G Real) (?H Real) (?I Real) (?J Real) (?K Real) (?L Real) (?M Real) (?N Real) (?O Real) (?P Real) (?Q Real) (?R Real) (?S Real) (?T Real) (?U Real) (?V Real) (?W Real) (?X Real) (?Y Real) (?Z Real) (?A1 Real) (?B1 Real) (?C1 Real) (?D1 Real) (?E1 Bool) (?F1 Bool) (?G1 Bool) (?H1 Bool) (?I1 Bool) (?J1 Bool) (?K1 Bool) (?L1 Bool) (?M1 Bool) (?N1 Bool) (?O1 Bool) (?P1 Bool) (?Q1 Bool) (?R1 Bool) (?S1 Bool) (?T1 Bool) (?U1 Bool) (?V1 Bool) (?W1 Bool) (?X1 Bool) (?Y1 Bool) (?Z1 Bool) (?A2 Bool) (?B2 Bool) (?C2 Bool) (?D2 Bool) (?E2 Bool) (?F2 Bool) (?G2 Bool) (?H2 Bool) (?I2 Bool) (?J2 Bool) (?K2 Bool) (?L2 Bool) (?M2 Bool) (?N2 Bool) (?O2 Bool) (?P2 Bool) (?Q2 Bool) (?R2 Bool) (?S2 Bool) (?T2 Bool) (?U2 Bool) (?V2 Bool) (?W2 Bool) (?X2 Bool) (?Y2 Bool) (?Z2 Bool) (?A3 Bool) (?B3 Bool) (?C3 Bool) (?D3 Bool) (?E3 Bool) (?F3 Bool) (?G3 Bool) (?H3 Bool) (?I3 Bool) (?J3 Bool) (?K3 Bool) (?L3 Bool) (?M3 Bool) (?N3 Bool) (?O3 Bool) (?P3 Bool) (?Q3 Bool) (?R3 Bool) (?S3 Bool) (?T3 Bool) (?U3 Bool) (?V3 Bool) (?W3 Bool) (?X3 Bool) (?Y3 Bool) (?Z3 Bool) (?A4 Bool) (?B4 Bool) (?C4 Bool) (?D4 Bool) (?E4 Bool) (?F4 Bool) (?G4 Real) (?H4 Real) (?I4 Real) (?J4 Real) (?K4 Real) (?L4 Real) (?M4 Real) (?N4 Real) (?O4 Real) (?P4 Real) (?Q4 Real) (?R4 Real) )(let (($x4773 (|cp-rel-bb.i| ?P ?Q ?R ?S ?T ?U ?V ?W ?X ?Y ?Z ?A1 ?B1 ?C1 ?D1)))
(let (($x299084 (not ?I1)))
(let (($x260487 (or $x299084 (and ?E1 ?J1 ?K1))))
(let (($x361430 (or $x299084 ?J1)))
(let (($x626760 (not ?L1)))
(let (($x347616 (or $x626760 (and ?I1 ?M1 ?N1) (and ?E1 ?O1 (not ?K1)))))
(let (($x262160 (or $x626760 (and ?M1 (not ?O1)) (and ?O1 (not ?M1)))))
(let (($x532724 (not ?P1)))
(let (($x644225 (or $x532724 ?Q1)))
(let (($x693866 (>= ?C1 ?N)))
(let (($x603502 (<= ?C1 ?N)))
(let (($x650020 (>= ?B1 ?M)))
(let (($x414468 (<= ?B1 ?M)))
(let (($x860680 (>= ?Y ?J)))
(let (($x553439 (<= ?Y ?J)))
(let (($x860685 (>= ?X ?I)))
(let (($x687797 (<= ?X ?I)))
(let (($x483265 (>= ?W ?H)))
(let (($x388575 (<= ?W ?H)))
(let (($x504823 (>= ?V ?G)))
(let (($x250513 (<= ?V ?G)))
(let (($x75647 (>= ?U ?F)))
(let (($x299370 (<= ?U ?F)))
(let (($x250726 (>= ?T ?E)))
(let (($x908094 (<= ?T ?E)))
(let (($x380599 (>= ?S ?D)))
(let (($x915663 (<= ?S ?D)))
(let (($x239449 (>= ?R ?C)))
(let (($x796700 (<= ?R ?C)))
(let (($x450442 (>= ?Q ?B)))
(let (($x644667 (<= ?Q ?B)))
(let (($x156086 (>= ?P ?G4)))
(let (($x269191 (<= ?P ?G4)))
(let (($x339498 (and ?P1 $x269191 $x156086 $x644667 $x450442 $x796700 $x239449 $x915663 $x380599 $x908094 $x250726 $x299370 $x75647 $x250513 $x504823 $x388575 $x483265 $x687797 $x860685 $x553439 $x860680 (<= ?Z 2.0) (>= ?Z 2.0) (<= ?A1 456.0) (>= ?A1 456.0) $x414468 $x650020 $x603502 $x693866 (<= ?D1 1.0) (>= ?D1 1.0))))
(let (($x834734 (>= ?D1 ?O)))
(let (($x136657 (<= ?D1 ?O)))
(let (($x609363 (>= ?A1 ?L)))
(let (($x56722 (<= ?A1 ?L)))
(let (($x843831 (>= ?Z ?K)))
(let (($x4223 (<= ?Z ?K)))
(let (($x385135 (not ?W1)))
(let (($x343585 (and ?R1 $x385135 $x269191 $x156086 $x644667 $x450442 $x796700 $x239449 $x915663 $x380599 $x908094 $x250726 $x299370 $x75647 $x250513 $x504823 $x388575 $x483265 $x687797 $x860685 $x553439 $x860680 $x4223 $x843831 $x56722 $x609363 $x414468 $x650020 (<= ?C1 1.0) (>= ?C1 1.0) $x136657 $x834734)))
(let (($x157813 (not ?D2)))
(let (($x622910 (and ?Y1 $x157813 $x269191 $x156086 $x644667 $x450442 $x796700 $x239449 $x915663 $x380599 $x908094 $x250726 $x299370 $x75647 $x250513 $x504823 $x388575 $x483265 $x687797 $x860685 (<= ?Y 0.0) (>= ?Y 0.0) $x4223 $x843831 $x56722 $x609363 (<= ?B1 1.0) (>= ?B1 1.0) $x603502 $x693866 $x136657 $x834734)))
(let (($x63376 (not ?K2)))
(let (($x488454 (and ?F2 $x63376 $x269191 $x156086 $x644667 $x450442 $x796700 $x239449 $x915663 $x380599 $x908094 $x250726 $x299370 $x75647 $x250513 $x504823 $x388575 $x483265 (<= ?X 1.0) (>= ?X 1.0) $x553439 $x860680 $x4223 $x843831 $x56722 $x609363 $x414468 $x650020 $x603502 $x693866 $x136657 $x834734)))
(let (($x629417 (not ?R2)))
(let (($x923531 (and ?M2 $x629417 $x269191 $x156086 $x644667 $x450442 $x796700 $x239449 $x915663 $x380599 $x908094 $x250726 $x299370 $x75647 $x250513 $x504823 (<= ?W 1.0) (>= ?W 1.0) $x687797 $x860685 $x553439 $x860680 $x4223 $x843831 $x56722 $x609363 $x414468 $x650020 $x603502 $x693866 $x136657 $x834734)))
(let (($x317978 (not ?Y2)))
(let (($x627774 (and ?T2 $x317978 $x269191 $x156086 $x644667 $x450442 $x796700 $x239449 $x915663 $x380599 $x908094 $x250726 $x299370 $x75647 (<= ?V 1.0) (>= ?V 1.0) $x388575 $x483265 $x687797 $x860685 $x553439 $x860680 $x4223 $x843831 $x56722 $x609363 $x414468 $x650020 $x603502 $x693866 $x136657 $x834734)))
(let (($x627976 (not ?F3)))
(let (($x598577 (and ?A3 $x627976 $x269191 $x156086 $x644667 $x450442 $x796700 $x239449 $x915663 $x380599 $x908094 $x250726 (<= ?U 1.0) (>= ?U 1.0) $x250513 $x504823 $x388575 $x483265 $x687797 $x860685 (<= ?Y 666.0) (>= ?Y 666.0) $x4223 $x843831 $x56722 $x609363 $x414468 $x650020 $x603502 $x693866 $x136657 $x834734)))
(let (($x36145 (and ?H3 (not ?M3) $x269191 $x156086 $x644667 $x450442 $x796700 $x239449 $x915663 $x380599 (<= ?T 1.0) (>= ?T 1.0) $x299370 $x75647 $x250513 $x504823 $x388575 $x483265 $x687797 $x860685 $x553439 $x860680 $x4223 $x843831 $x56722 $x609363 $x414468 $x650020 $x603502 $x693866 $x136657 $x834734)))
(let (($x513950 (and ?O3 (not ?T3) $x269191 $x156086 $x644667 $x450442 $x796700 $x239449 (<= ?S 1.0) (>= ?S 1.0) $x908094 $x250726 $x299370 $x75647 $x250513 $x504823 $x388575 $x483265 $x687797 $x860685 $x553439 $x860680 $x4223 $x843831 $x56722 $x609363 $x414468 $x650020 $x603502 $x693866 $x136657 $x834734)))
(let (($x698292 (not ?A4)))
(let (($x59522 (and ?V3 $x698292 $x269191 $x156086 $x644667 $x450442 (<= ?R 1.0) (>= ?R 1.0) $x915663 $x380599 $x908094 $x250726 $x299370 $x75647 $x250513 $x504823 $x388575 $x483265 $x687797 $x860685 $x553439 $x860680 $x4223 $x843831 $x56722 $x609363 $x414468 $x650020 $x603502 $x693866 $x136657 $x834734)))
(let (($x470670 (and ?C4 (not ?F4) $x269191 $x156086 (<= ?Q 1.0) (>= ?Q 1.0) $x796700 $x239449 $x915663 $x380599 $x908094 $x250726 $x299370 $x75647 $x250513 $x504823 $x388575 $x483265 $x687797 $x860685 $x553439 $x860680 $x4223 $x843831 $x56722 $x609363 $x414468 $x650020 $x603502 $x693866 $x136657 $x834734)))
(let (($x330701 (|cp-rel-bb.i| ?A ?B ?C ?D ?E ?F ?G ?H ?I ?J ?K ?L ?M ?N ?O)))
(let (($x414968 (and $x330701 (= ?E4 (= ?B 0.0)) (= ?A4 (= ?Q4 0.0)) (= ?X3 (= ?C 0.0)) (= ?T3 (= ?P4 0.0)) (= ?Q3 (= ?D 0.0)) (= ?M3 (= ?O4 0.0)) (= ?J3 (= ?E 0.0)) (= ?F3 (= ?N4 0.0)) (= ?C3 (= ?F 0.0)) (= ?Y2 (= ?M4 0.0)) (= ?V2 (= ?G 0.0)) (= ?R2 (= ?L4 0.0)) (= ?O2 (= ?H 0.0)) (= ?K2 (= ?K4 0.0)) (= ?H2 (= ?I 0.0)) (= ?D2 (= ?J4 0.0)) (= ?A2 (= ?M 0.0)) (= ?W1 (= ?I4 0.0)) (= ?T1 (= ?N 0.0)) (= ?N1 (= ?H4 0.0)) (= ?K1 (= ?O 0.0)) (= ?G4 (+ 1.0 ?A)) (= ?H1 (not (<= ?A 3.0))) (or $x470670 $x59522 $x513950 $x36145 $x598577 $x627774 $x923531 $x488454 $x622910 $x343585 $x339498) (or (not ?C4) ?D4) (or (not ?C4) (and ?Y3 ?D4 ?E4)) (or (not ?Y3) (and ?Z3 (not ?B4)) (and ?B4 (not ?Z3))) (or (not ?Y3) (and ?V3 ?Z3 ?A4) (and ?R3 ?B4 (not ?X3))) (or (not ?V3) ?W3) (or (not ?V3) (and ?R3 ?W3 ?X3)) (or (not ?R3) (and ?S3 (not ?U3)) (and ?U3 (not ?S3))) (or (not ?R3) (and ?O3 ?S3 ?T3) (and ?K3 ?U3 (not ?Q3))) (or (not ?O3) ?P3) (or (not ?O3) (and ?K3 ?P3 ?Q3)) (or (not ?K3) (and ?L3 (not ?N3)) (and ?N3 (not ?L3))) (or (not ?K3) (and ?H3 ?L3 ?M3) (and ?D3 ?N3 (not ?J3))) (or (not ?H3) ?I3) (or (not ?H3) (and ?D3 ?I3 ?J3)) (or (not ?D3) (and ?E3 (not ?G3)) (and ?G3 (not ?E3))) (or (not ?D3) (and ?A3 ?E3 ?F3) (and ?W2 ?G3 (not ?C3))) (or (not ?A3) ?B3) (or (not ?A3) (and ?W2 ?B3 ?C3)) (or (not ?W2) (and ?X2 (not ?Z2)) (and ?Z2 (not ?X2))) (or (not ?W2) (and ?T2 ?X2 ?Y2) (and ?P2 ?Z2 (not ?V2))) (or (not ?T2) ?U2) (or (not ?T2) (and ?P2 ?U2 ?V2)) (or (not ?P2) (and ?Q2 (not ?S2)) (and ?S2 (not ?Q2))) (or (not ?P2) (and ?M2 ?Q2 ?R2) (and ?I2 ?S2 (not ?O2))) (or (not ?M2) ?N2) (or (not ?M2) (and ?I2 ?N2 ?O2)) (or (not ?I2) (and ?J2 (not ?L2)) (and ?L2 (not ?J2))) (or (not ?I2) (and ?F2 ?J2 ?K2) (and ?B2 ?L2 (not ?H2))) (or (not ?F2) ?G2) (or (not ?F2) (and ?B2 ?G2 ?H2)) (or (not ?B2) (and ?C2 (not ?E2)) (and ?E2 (not ?C2))) (or (not ?B2) (and ?Y1 ?C2 ?D2) (and ?U1 ?E2 (not ?A2))) (or (not ?Y1) ?Z1) (or (not ?Y1) (and ?U1 ?Z1 ?A2)) (or (not ?U1) (and ?V1 (not ?X1)) (and ?X1 (not ?V1))) (or (not ?U1) (and ?R1 ?V1 ?W1) (and ?L1 ?X1 (not ?T1))) (or (not ?R1) ?S1) (or (not ?R1) (and ?L1 ?S1 ?T1)) $x644225 (or $x532724 (and ?I1 ?Q1 (not ?N1))) $x262160 $x347616 $x361430 $x260487 (or (not ?E1) ?G1) (or (not ?E1) (and ?F1 ?G1 (not ?H1))) (= ?F4 (= ?R4 0.0)))))
(=> $x414968 $x4773)))))))))))))))))))))))))))))))))))))))))))))))))))))))))))))
)
(assert (forall ((?A Real) (?B Real) (?C Real) (?D Real) (?E Real) (?F Real) (?G Real) (?H Real) (?I Real) (?J Real) (?K Real) (?L Real) (?M Real) (?N Real) (?O Real) (?P Bool) (?Q Bool) (?R Bool) (?S Bool) (?T Bool) (?U Bool) (?V Bool) (?W Bool) (?X Bool) (?Y Bool) (?Z Bool) (?A1 Bool) (?B1 Bool) (?C1 Bool) (?D1 Bool) (?E1 Bool) (?F1 Bool) (?G1 Bool) (?H1 Bool) (?I1 Bool) (?J1 Bool) (?K1 Bool) (?L1 Bool) (?M1 Bool) (?N1 Bool) (?O1 Bool) (?P1 Bool) (?Q1 Bool) (?R1 Bool) (?S1 Bool) (?T1 Bool) (?U1 Bool) (?V1 Bool) (?W1 Bool) (?X1 Bool) (?Y1 Bool) (?Z1 Bool) (?A2 Bool) (?B2 Bool) (?C2 Bool) (?D2 Bool) (?E2 Bool) (?F2 Bool) (?G2 Bool) (?H2 Bool) (?I2 Bool) (?J2 Bool) (?K2 Bool) (?L2 Bool) (?M2 Bool) (?N2 Bool) (?O2 Bool) (?P2 Bool) (?Q2 Bool) (?R2 Bool) (?S2 Bool) (?T2 Bool) (?U2 Bool) (?V2 Bool) (?W2 Bool) (?X2 Bool) (?Y2 Bool) (?Z2 Bool) (?A3 Bool) (?B3 Bool) (?C3 Bool) (?D3 Bool) (?E3 Bool) (?F3 Bool) (?G3 Bool) (?H3 Bool) (?I3 Bool) (?J3 Bool) (?K3 Bool) (?L3 Bool) (?M3 Bool) (?N3 Bool) (?O3 Bool) (?P3 Real) (?Q3 Real) (?R3 Real) (?S3 Real) (?T3 Real) (?U3 Real) (?V3 Real) (?W3 Real) (?X3 Real) (?Y3 Real) (?Z3 Real) (?A4 Real) (?B4 Real) (?C4 Bool) (?D4 Bool) (?E4 Bool) (?F4 Bool) (?G4 Bool) (?H4 Bool) (?I4 Bool) (?J4 Bool) (?K4 Bool) (?L4 Bool) (?M4 Bool) (?N4 Bool) (?O4 Bool) (?P4 Bool) (?Q4 Bool) (?R4 Bool) (?S4 Bool) (?T4 Bool) (?U4 Real) (?V4 Bool) (?W4 Bool) (?X4 Bool) )(let (($x322367 (|cp-rel-__UFO__0| ?A ?B ?C ?D ?E ?F ?G ?H ?I ?J ?K ?L ?M ?N ?O ?B4 ?C4)))
(let (($x299084 (not ?O1)))
(let (($x260487 (or $x299084 (and ?K1 ?P1 ?Q1))))
(let (($x361430 (or $x299084 ?P1)))
(let (($x626760 (not ?R1)))
(let (($x347616 (or $x626760 (and ?O1 ?S1 ?T1) (and ?K1 ?U1 (not ?Q1)))))
(let (($x262160 (or $x626760 (and ?S1 (not ?U1)) (and ?U1 (not ?S1)))))
(let (($x532724 (not ?V1)))
(let (($x644225 (or $x532724 ?W1)))
(let (($x594028 (not ?D4)))
(let (($x128585 (or $x594028 (and ?L3 ?E4 ?O3) (and ?H3 ?F4 (not ?N3)) (and ?Q ?G4 ?S))))
(let (($x235400 (or $x594028 (and ?E4 (not ?F4) (not ?G4)) (and ?F4 (not ?E4) (not ?G4)) (and ?G4 (not ?E4) (not ?F4)))))
(let (($x717977 (|cp-rel-bb.i| ?A ?B ?C ?D ?E ?F ?G ?H ?I ?J ?K ?L ?M ?N ?O)))
(let (($x625952 (and $x717977 (= ?X4 (= ?J 0.0)) (= ?L4 (or ?W4 ?V4)) (= ?W4 (not (= ?J ?B4))) (= ?V4 (= ?J 0.0)) (= ?U4 (ite ?C4 1.0 0.0)) (= ?C4 (= ?B4 0.0)) (= ?B4 (ite ?T4 ?L 0.0)) (= ?T4 (= ?K 2.0)) (= ?O3 (= ?A4 0.0)) (= ?N3 (= ?B 0.0)) (= ?J3 (= ?Z3 0.0)) (= ?G3 (= ?C 0.0)) (= ?C3 (= ?Y3 0.0)) (= ?Z2 (= ?D 0.0)) (= ?V2 (= ?X3 0.0)) (= ?S2 (= ?E 0.0)) (= ?O2 (= ?W3 0.0)) (= ?L2 (= ?F 0.0)) (= ?H2 (= ?V3 0.0)) (= ?E2 (= ?G 0.0)) (= ?A2 (= ?U3 0.0)) (= ?X1 (= ?H 0.0)) (= ?T1 (= ?T3 0.0)) (= ?Q1 (= ?I 0.0)) (= ?M1 (= ?S3 0.0)) (= ?J1 (= ?M 0.0)) (= ?F1 (= ?R3 0.0)) (= ?C1 (= ?N 0.0)) (= ?Y (= ?Q3 0.0)) (= ?V (= ?O 0.0)) (= ?P3 (+ 1.0 ?A)) (= ?S (not (<= ?A 3.0))) (= ?Q4 true) (or (not ?Q4) (and ?R4 (not ?S4)) (and ?S4 (not ?R4))) (or (not ?Q4) (and ?N4 ?R4) (and ?J4 ?S4 ?P4)) (or (not ?N4) ?O4) (or (not ?N4) (and ?J4 ?O4 (not ?P4))) (or (not ?J4) (and ?K4 (not ?M4)) (and ?M4 (not ?K4))) (or (not ?J4) (and ?H4 ?K4 (not ?L4)) (and ?D4 ?M4 ?C4)) (or (not ?H4) ?I4) (or (not ?H4) (and ?D4 ?I4 (not ?C4))) $x235400 $x128585 (or (not ?L3) ?M3) (or (not ?L3) (and ?H3 ?M3 ?N3)) (or (not ?H3) (and ?I3 (not ?K3)) (and ?K3 (not ?I3))) (or (not ?H3) (and ?E3 ?I3 ?J3) (and ?A3 ?K3 (not ?G3))) (or (not ?E3) ?F3) (or (not ?E3) (and ?A3 ?F3 ?G3)) (or (not ?A3) (and ?B3 (not ?D3)) (and ?D3 (not ?B3))) (or (not ?A3) (and ?X2 ?B3 ?C3) (and ?T2 ?D3 (not ?Z2))) (or (not ?X2) ?Y2) (or (not ?X2) (and ?T2 ?Y2 ?Z2)) (or (not ?T2) (and ?U2 (not ?W2)) (and ?W2 (not ?U2))) (or (not ?T2) (and ?Q2 ?U2 ?V2) (and ?M2 ?W2 (not ?S2))) (or (not ?Q2) ?R2) (or (not ?Q2) (and ?M2 ?R2 ?S2)) (or (not ?M2) (and ?N2 (not ?P2)) (and ?P2 (not ?N2))) (or (not ?M2) (and ?J2 ?N2 ?O2) (and ?F2 ?P2 (not ?L2))) (or (not ?J2) ?K2) (or (not ?J2) (and ?F2 ?K2 ?L2)) (or (not ?F2) (and ?G2 (not ?I2)) (and ?I2 (not ?G2))) (or (not ?F2) (and ?C2 ?G2 ?H2) (and ?Y1 ?I2 (not ?E2))) (or (not ?C2) ?D2) (or (not ?C2) (and ?Y1 ?D2 ?E2)) (or (not ?Y1) (and ?Z1 (not ?B2)) (and ?B2 (not ?Z1))) (or (not ?Y1) (and ?V1 ?Z1 ?A2) (and ?R1 ?B2 (not ?X1))) $x644225 (or $x532724 (and ?R1 ?W1 ?X1)) $x262160 $x347616 $x361430 $x260487 (or (not ?K1) (and ?L1 (not ?N1)) (and ?N1 (not ?L1))) (or (not ?K1) (and ?H1 ?L1 ?M1) (and ?D1 ?N1 (not ?J1))) (or (not ?H1) ?I1) (or (not ?H1) (and ?D1 ?I1 ?J1)) (or (not ?D1) (and ?E1 (not ?G1)) (and ?G1 (not ?E1))) (or (not ?D1) (and ?A1 ?E1 ?F1) (and ?W ?G1 (not ?C1))) (or (not ?A1) ?B1) (or (not ?A1) (and ?W ?B1 ?C1)) (or (not ?W) (and ?X (not ?Z)) (and ?Z (not ?X))) (or (not ?W) (and ?T ?X ?Y) (and ?P ?Z (not ?V))) (or (not ?T) ?U) (or (not ?T) (and ?P ?U ?V)) (or (not ?P) ?R) (or (not ?P) (and ?Q ?R (not ?S))) (= ?P4 (or ?C4 ?X4)))))
(=> $x625952 $x322367))))))))))))))))
)
(assert (forall ((?A Real) (?B Bool) (?C Real) (?D Real) (?E Real) (?F Real) (?G Real) (?H Real) (?I Real) (?J Real) (?K Real) (?L Real) (?M Real) (?N Real) (?O Real) (?P Real) (?Q Real) (?R Bool) )(let (($x864194 (|cp-rel-__UFO__0| ?C ?D ?E ?F ?G ?H ?I ?J ?K ?L ?M ?N ?O ?P ?Q ?A ?B)))
(=> (and $x864194 (= ?R true)) $x864194)))
)
(assert (forall ((?A Real) (?B Real) (?C Real) (?D Real) (?E Real) (?F Real) (?G Real) (?H Real) (?I Real) (?J Real) (?K Real) (?L Real) (?M Real) (?N Real) (?O Real) (?P Bool) (?Q Bool) (?R Bool) (?S Bool) (?T Bool) (?U Bool) (?V Bool) (?W Bool) (?X Bool) (?Y Bool) (?Z Bool) (?A1 Bool) (?B1 Bool) (?C1 Bool) (?D1 Bool) (?E1 Bool) (?F1 Bool) (?G1 Bool) (?H1 Bool) (?I1 Bool) (?J1 Bool) (?K1 Bool) (?L1 Bool) (?M1 Bool) (?N1 Bool) (?O1 Bool) (?P1 Bool) (?Q1 Bool) (?R1 Bool) (?S1 Bool) (?T1 Bool) (?U1 Bool) (?V1 Bool) (?W1 Bool) (?X1 Bool) (?Y1 Bool) (?Z1 Bool) (?A2 Bool) (?B2 Bool) (?C2 Bool) (?D2 Bool) (?E2 Bool) (?F2 Bool) (?G2 Bool) (?H2 Bool) (?I2 Bool) (?J2 Bool) (?K2 Bool) (?L2 Bool) (?M2 Bool) (?N2 Bool) (?O2 Bool) (?P2 Bool) (?Q2 Bool) (?R2 Bool) (?S2 Bool) (?T2 Bool) (?U2 Bool) (?V2 Bool) (?W2 Bool) (?X2 Bool) (?Y2 Bool) (?Z2 Bool) (?A3 Bool) (?B3 Bool) (?C3 Bool) (?D3 Bool) (?E3 Bool) (?F3 Bool) (?G3 Bool) (?H3 Bool) (?I3 Bool) (?J3 Bool) (?K3 Bool) (?L3 Bool) (?M3 Bool) (?N3 Bool) (?O3 Bool) (?P3 Real) (?Q3 Real) (?R3 Real) (?S3 Real) (?T3 Real) (?U3 Real) (?V3 Real) (?W3 Real) (?X3 Real) (?Y3 Real) (?Z3 Real) (?A4 Real) (?B4 Real) (?C4 Bool) (?D4 Bool) (?E4 Bool) (?F4 Bool) (?G4 Bool) (?H4 Bool) (?I4 Bool) (?J4 Bool) (?K4 Bool) (?L4 Real) (?M4 Bool) (?N4 Bool) )(let (($x151146 (not ?D4)))
(let (($x505824 (or $x151146 (and ?L3 ?E4 ?O3) (and ?H3 ?F4 (not ?N3)) (and ?Q ?G4 ?S))))
(let (($x190742 (or $x151146 (and ?E4 (not ?F4) (not ?G4)) (and ?F4 (not ?E4) (not ?G4)) (and ?G4 (not ?E4) (not ?F4)))))
(let (($x842720 (|cp-rel-bb.i| ?A ?B ?C ?D ?E ?F ?G ?H ?I ?J ?K ?L ?M ?N ?O)))
(let (($x248267 (and $x842720 (= ?N4 (not (= ?J ?B4))) (= ?M4 (= ?J 0.0)) (= ?L4 (ite ?C4 1.0 0.0)) (= ?C4 (= ?B4 0.0)) (= ?B4 (ite ?K4 ?L 0.0)) (= ?K4 (= ?K 2.0)) (= ?O3 (= ?A4 0.0)) (= ?N3 (= ?B 0.0)) (= ?J3 (= ?Z3 0.0)) (= ?G3 (= ?C 0.0)) (= ?C3 (= ?Y3 0.0)) (= ?Z2 (= ?D 0.0)) (= ?V2 (= ?X3 0.0)) (= ?S2 (= ?E 0.0)) (= ?O2 (= ?W3 0.0)) (= ?L2 (= ?F 0.0)) (= ?H2 (= ?V3 0.0)) (= ?E2 (= ?G 0.0)) (= ?A2 (= ?U3 0.0)) (= ?X1 (= ?H 0.0)) (= ?T1 (= ?T3 0.0)) (= ?Q1 (= ?I 0.0)) (= ?M1 (= ?S3 0.0)) (= ?J1 (= ?M 0.0)) (= ?F1 (= ?R3 0.0)) (= ?C1 (= ?N 0.0)) (= ?Y (= ?Q3 0.0)) (= ?V (= ?O 0.0)) (= ?P3 (+ 1.0 ?A)) (= ?S (not (<= ?A 3.0))) (= ?J4 true) (= ?H4 true) (or (not ?H4) ?I4) (or (not ?H4) (and ?D4 ?I4 (not ?C4))) $x190742 $x505824 (or (not ?L3) ?M3) (or (not ?L3) (and ?H3 ?M3 ?N3)) (or (not ?H3) (and ?I3 (not ?K3)) (and ?K3 (not ?I3))) (or (not ?H3) (and ?E3 ?I3 ?J3) (and ?A3 ?K3 (not ?G3))) (or (not ?E3) ?F3) (or (not ?E3) (and ?A3 ?F3 ?G3)) (or (not ?A3) (and ?B3 (not ?D3)) (and ?D3 (not ?B3))) (or (not ?A3) (and ?X2 ?B3 ?C3) (and ?T2 ?D3 (not ?Z2))) (or (not ?X2) ?Y2) (or (not ?X2) (and ?T2 ?Y2 ?Z2)) (or (not ?T2) (and ?U2 (not ?W2)) (and ?W2 (not ?U2))) (or (not ?T2) (and ?Q2 ?U2 ?V2) (and ?M2 ?W2 (not ?S2))) (or (not ?Q2) ?R2) (or (not ?Q2) (and ?M2 ?R2 ?S2)) (or (not ?M2) (and ?N2 (not ?P2)) (and ?P2 (not ?N2))) (or (not ?M2) (and ?J2 ?N2 ?O2) (and ?F2 ?P2 (not ?L2))) (or (not ?J2) ?K2) (or (not ?J2) (and ?F2 ?K2 ?L2)) (or (not ?F2) (and ?G2 (not ?I2)) (and ?I2 (not ?G2))) (or (not ?F2) (and ?C2 ?G2 ?H2) (and ?Y1 ?I2 (not ?E2))) (or (not ?C2) ?D2) (or (not ?C2) (and ?Y1 ?D2 ?E2)) (or (not ?Y1) (and ?Z1 (not ?B2)) (and ?B2 (not ?Z1))) (or (not ?Y1) (and ?V1 ?Z1 ?A2) (and ?R1 ?B2 (not ?X1))) (or (not ?V1) ?W1) (or (not ?V1) (and ?R1 ?W1 ?X1)) (or (not ?R1) (and ?S1 (not ?U1)) (and ?U1 (not ?S1))) (or (not ?R1) (and ?O1 ?S1 ?T1) (and ?K1 ?U1 (not ?Q1))) (or (not ?O1) ?P1) (or (not ?O1) (and ?K1 ?P1 ?Q1)) (or (not ?K1) (and ?L1 (not ?N1)) (and ?N1 (not ?L1))) (or (not ?K1) (and ?H1 ?L1 ?M1) (and ?D1 ?N1 (not ?J1))) (or (not ?H1) ?I1) (or (not ?H1) (and ?D1 ?I1 ?J1)) (or (not ?D1) (and ?E1 (not ?G1)) (and ?G1 (not ?E1))) (or (not ?D1) (and ?A1 ?E1 ?F1) (and ?W ?G1 (not ?C1))) (or (not ?A1) ?B1) (or (not ?A1) (and ?W ?B1 ?C1)) (or (not ?W) (and ?X (not ?Z)) (and ?Z (not ?X))) (or (not ?W) (and ?T ?X ?Y) (and ?P ?Z (not ?V))) (or (not ?T) ?U) (or (not ?T) (and ?P ?U ?V)) (or (not ?P) ?R) (or (not ?P) (and ?Q ?R (not ?S))) (= ?J4 (or ?N4 ?M4)))))
(=> $x248267 |cp-rel-bb1.i.i6.i.i.i.i.i.i|)))))))
)
(assert (not cp-rel-bb1.i.i6.i.i.i.i.i.i))
(check-sat)
